(declare-fun temp2392_1 () (_ BitVec 64))
(declare-fun temp2392_2 () (_ BitVec 64))
(declare-fun var82670 () (_ BitVec 64))
(declare-fun k!0 () Bool)
(declare-fun ARGNAME_input_NAMEEND_DIM () (_ BitVec 64))
(declare-fun temp2392_3 () (_ BitVec 64))
(declare-fun ARGNAME_sections_NAMEEND () (_ BitVec 64))
(declare-fun var82695 () (_ BitVec 64))
(declare-fun temp2392_4 () (_ BitVec 64))
(declare-fun temp2392_5 () (_ BitVec 64))
(declare-fun var67369 () (_ BitVec 64))
(declare-fun temp2392_6 () (_ BitVec 64))
(declare-fun temp2392_7 () (_ BitVec 64))
(declare-fun ARGNAME_input_NAMEEND_DIMSIZE
             ()
             (Array (_ BitVec 64) (_ BitVec 64)))
(declare-fun temp2392_8 () (_ BitVec 64))
(declare-fun temp2392_9 () (_ BitVec 64))
(declare-fun temp2392_10 () (_ BitVec 64))
(declare-fun temp2392_11 () (_ BitVec 64))
(declare-fun temp2392_12 () (_ BitVec 64))
(declare-fun temp2392_13 () (_ BitVec 64))
(declare-fun temp2392_14 () (_ BitVec 64))
(declare-fun temp2392_15 () (_ BitVec 64))
(declare-fun temp2392_16 () (_ BitVec 64))
(declare-fun temp2392_17 () (_ BitVec 64))
(declare-fun temp2392_18 () (_ BitVec 64))
(declare-fun temp2392_19 () (_ BitVec 64))
(declare-fun temp2392_20 () (_ BitVec 64))
(declare-fun temp2392_21 () (_ BitVec 64))
(declare-fun temp2392_22 () (_ BitVec 64))
(declare-fun temp2392_23 () (_ BitVec 64))
(declare-fun temp2392_25 () (_ BitVec 64))
(declare-fun temp2392_26 () (_ BitVec 64))
(declare-fun temp2392_24 () (_ BitVec 64))
(declare-fun var82709 () (_ BitVec 64))
(declare-fun temp2392_27 () (_ BitVec 64))
(declare-fun var82710 () (_ BitVec 64))
(declare-fun temp2392_28 () (_ BitVec 64))
(declare-fun var140605 () (_ BitVec 64))
(declare-fun temp2392_29 () (_ BitVec 64))
(declare-fun var140635 () (_ BitVec 64))
(declare-fun temp2392_30 () (_ BitVec 64))
(declare-fun temp2392_31 () (_ BitVec 64))
(declare-fun var140664 () (_ BitVec 64))
(declare-fun temp2392_32 () (_ BitVec 64))
(declare-fun temp2392_34 () (_ BitVec 64))
(declare-fun temp2392_33 () (_ BitVec 64))
(declare-fun temp2392_36 () (_ BitVec 64))
(declare-fun temp2392_35 () (_ BitVec 64))
(declare-fun var462146 () (_ BitVec 64))
(declare-fun temp2392_37 () (_ BitVec 64))
(declare-fun temp2392_38 () (_ BitVec 64))
(declare-fun var527687 () (_ BitVec 64))
(declare-fun var593234 () (_ BitVec 64))
(declare-fun temp2392_39 () (_ BitVec 64))
(declare-fun var1130139 () (_ BitVec 64))
(declare-fun temp2392_40 () (_ BitVec 64))
(declare-fun var1130188 () (_ BitVec 64))
(declare-fun temp2392_41 () (_ BitVec 64))
(declare-fun temp2392_42 () (_ BitVec 64))
(declare-fun var1380938 () (_ BitVec 64))
(declare-fun temp2392_43 () (_ BitVec 64))
(declare-fun var2101834 () (_ BitVec 64))
(declare-fun temp2392_44 () (_ BitVec 64))
(declare-fun var1130297 () (_ BitVec 64))
(declare-fun temp2392_45 () (_ BitVec 64))
(declare-fun var1130305 () (_ BitVec 64))
(declare-fun temp2392_46 () (_ BitVec 64))
(declare-fun temp2392_47 () (_ BitVec 64))
(declare-fun var1130340 () (_ BitVec 64))
(declare-fun temp2392_48 () (_ BitVec 64))
(declare-fun var1130348 () (_ BitVec 64))
(declare-fun temp2392_49 () (_ BitVec 64))
(declare-fun var1130358 () (_ BitVec 64))
(declare-fun temp2392_50 () (_ BitVec 64))
(declare-fun var1130369 () (_ BitVec 64))
(declare-fun temp2392_51 () (_ BitVec 64))
(declare-fun var1130393 () (_ BitVec 64))
(declare-fun var1130394 () (_ BitVec 64))
(declare-fun temp2392_52 () (_ BitVec 64))
(declare-fun var3291804 () (_ BitVec 64))
(declare-fun var3291805 () (_ BitVec 64))
(declare-fun var3291808 () (_ BitVec 64))
(declare-fun temp2392_54 () (_ BitVec 64))
(declare-fun temp2392_53 () (_ BitVec 64))
(assert (= temp2392_1 #x0000000000000003))
(assert (= var82670
   (ite (bvslt ARGNAME_input_NAMEEND_DIM temp2392_1)
        #x0000000000000001
        #x0000000000000000)))
(assert (= temp2392_2 #x0000000000000000))
(assert (= var82670 temp2392_2))
(assert (= temp2392_3 #x0000000000000000))
(assert (= var82695
   (ite (= ARGNAME_sections_NAMEEND temp2392_3)
        #x0000000000000001
        #x0000000000000000)))
(assert (= temp2392_4 #x0000000000000000))
(assert (= var82695 temp2392_4))
(assert (= temp2392_5 #x0000000000000002))
(assert (= var67369 temp2392_5))
(assert (= temp2392_6 #x0000000000000000))
(assert (= temp2392_7 temp2392_6))
(assert (= temp2392_8 (select ARGNAME_input_NAMEEND_DIMSIZE temp2392_7)))
(assert (= temp2392_9 #x0000000000000001))
(assert (= temp2392_10 temp2392_9))
(assert (= temp2392_11 (select ARGNAME_input_NAMEEND_DIMSIZE temp2392_10)))
(assert (= temp2392_12 #x0000000000000002))
(assert (= temp2392_13 temp2392_12))
(assert (= temp2392_14 (select ARGNAME_input_NAMEEND_DIMSIZE temp2392_13)))
(assert (= temp2392_15 #x0000000000000003))
(assert (= temp2392_16 temp2392_15))
(assert (= temp2392_17 (select ARGNAME_input_NAMEEND_DIMSIZE temp2392_16)))
(assert (= temp2392_18 #x0000000000000004))
(assert (= temp2392_19 temp2392_18))
(assert (= temp2392_20 (select ARGNAME_input_NAMEEND_DIMSIZE temp2392_19)))
(assert (= temp2392_21 #x0000000000000005))
(assert (= temp2392_22 temp2392_21))
(assert (= temp2392_23 (select ARGNAME_input_NAMEEND_DIMSIZE temp2392_22)))
(assert (= temp2392_25 var67369))
(assert (= temp2392_26 (select ARGNAME_input_NAMEEND_DIMSIZE temp2392_25)))
(assert (= temp2392_24 temp2392_26))
(assert (= var82709 (bvsmod temp2392_24 ARGNAME_sections_NAMEEND)))
(assert (= temp2392_27 #x0000000000000000))
(assert (= var82710
   (ite (= var82709 temp2392_27) #x0000000000000001 #x0000000000000000)))
(assert (= temp2392_28 #x0000000000000001))
(assert (= var82710 temp2392_28))
(assert (= var140605 var67369))
(assert (= temp2392_29 #x0000000000000001))
(assert (= var140635
   (ite (bvslt ARGNAME_input_NAMEEND_DIM temp2392_29)
        #x0000000000000001
        #x0000000000000000)))
(assert (= temp2392_30 #x0000000000000000))
(assert (= var140635 temp2392_30))
(assert (= temp2392_31 #x0000000000000001))
(assert (= var140664
   (ite (bvslt ARGNAME_sections_NAMEEND temp2392_31)
        #x0000000000000001
        #x0000000000000000)))
(assert (= temp2392_32 #x0000000000000000))
(assert (= var140664 temp2392_32))
(assert (= temp2392_34 #x0000000000000000))
(assert (= temp2392_33 temp2392_34))
(assert (= temp2392_36 #x0000000000000000))
(assert (= temp2392_35 temp2392_36))
(assert (= var462146
   (ite (bvslt temp2392_35 ARGNAME_sections_NAMEEND)
        #x0000000000000001
        #x0000000000000000)))
(assert (= temp2392_37
   (ite (= var462146 #x0000000000000001) ARGNAME_sections_NAMEEND temp2392_35)))
(assert (= temp2392_38 #x0000000000000000))
(assert (= var527687 temp2392_38))
(assert (= var593234 var527687))
(assert (= temp2392_39 #x0000000000000001))
(assert (= var1130139 temp2392_39))
(assert (= temp2392_40 #x0000000000000000))
(assert (= var1130188
   (ite (= ARGNAME_input_NAMEEND_DIM temp2392_40)
        #x0000000000000001
        #x0000000000000000)))
(assert (= temp2392_41 #x0000000000000000))
(assert (= var1130188 temp2392_41))
(assert (= temp2392_42 #x0000000000000005))
(assert (= var1380938 temp2392_42))
(assert (= temp2392_43 #x0000000000000005))
(assert (= var2101834 temp2392_43))
(assert (= temp2392_44 #x0000000000000000))
(assert (= var1130297 temp2392_44))
(assert (= temp2392_45 #x0000000000000001))
(assert (= var1130305
   (ite (bvslt var1130139 temp2392_45) #x0000000000000001 #x0000000000000000)))
(assert (= temp2392_46 #x0000000000000000))
(assert (= var1130305 temp2392_46))
(assert (= temp2392_47 #x0000000000000000))
(assert (= var1130340
   (ite (bvslt var1130297 temp2392_47) #x0000000000000001 #x0000000000000000)))
(assert (= temp2392_48 #x0000000000000000))
(assert (= var1130340 temp2392_48))
(assert (= var1130348 var1130297))
(assert (= temp2392_49 #x0000000000000000))
(assert (= var1130358
   (ite (bvslt var1130348 temp2392_49) #x0000000000000001 #x0000000000000000)))
(assert (= temp2392_50 #x0000000000000000))
(assert (= var1130358 temp2392_50))
(assert (= var1130369 var1130348))
(assert (= temp2392_51 #xffffffffffffffff))
(assert (= var1130393 (bvxor var1130369 temp2392_51)))
(assert (= var1130394 (bvadd var1130393 var1130139)))
(assert (= temp2392_52 #x0000000000000000))
(assert (= var3291804 temp2392_52))
(assert (= var3291805 var1130369))
(assert (= var3291808 var1130139))
(assert (= temp2392_54 #x0000000000000000))
(assert (= temp2392_53 temp2392_54))
(model-add temp2392_1 () (_ BitVec 64) #x0000000000000003)
(model-add temp2392_2 () (_ BitVec 64) #x0000000000000000)
(model-add var82670 () (_ BitVec 64) #x0000000000000000)
(model-del k!0)
(model-add ARGNAME_input_NAMEEND_DIM
           ()
           (_ BitVec 64)
           (ite (or k!0 (= #x0000000000000003 #x8000000000000000))
                #x0000000000000003
                (bvsub #x0000000000000003 #x0000000000000001)))





